============================[ Problem Statistics ]=============================|                                                                             ||  Number of variables:          4242                                         ||  Number of clauses:            9875                                         ||  Parse time:                   0.29 s                                       ||                                                                             |============================[ Search Statistics ]==============================| Conflicts |          ORIGINAL         |          LEARNT          | Progress ||           |    Vars  Clauses Literals |    Limit  Clauses Lit/Cl |          |===============================================================================|       100 |    1591     6080   420681 |     2229      100     53 | 62.501 % |===============================================================================restarts              : 2conflicts             : 161            (357 /sec)decisions             : 331            (0.00 % random) (734 /sec)propagations          : 9981           (22131 /sec)conflict literals     : 10669          (95.34 % deleted)CPU time              : 0.451 sSATISFIABLE